# Reference: M. Orsi, Comparative assessment of the ELBA coarse-grained
# model for water, Molecular Physics (2014), 112, 1566-1576

units real
atom_style full
read_data SPCE.in
include SPCE_force
pair_modify tail no

replicate 20 20 20

variable xLo equal -0.5*lx
variable xHi equal 0.5*lx
variable yLo equal -0.5*ly
variable yHi equal 0.5*ly
variable zLo equal -0.5*lz
variable zHi equal 0.5*lz

# Recenter system coords about the origin (0,0,0):
displace_atoms all move ${xLo} ${yLo} ${zLo} units box

# Adjust box dimensions:
change_box all x final ${xLo} ${xHi} units box
change_box all y final ${yLo} ${yHi} units box
change_box all z final ${zLo} ${zHi} units box

# Increase z edge to yield "Vacuum|Water|Vacuum" system:
variable zLoNew equal -2.0*lz
variable zHiNew equal 2.0*lz
change_box all z final ${zLoNew} ${zHiNew} units box

# Ne is to use input values every this many timesteps
# Nr is number of times to use input values for calculating averages
# Nf is to calculate averages every this many timesteps
# The average is over Nrepeat quantities,
# computed in the preceding portion of the simulation every Nevery timesteps
# Nrepeat*Nevery can not exceed Nfreq
variable Nblock equal 200
variable Nrun equal 20.0*${Nblock}
variable Ndump equal ${Nrun}/4
variable Ne equal 10
variable Nr equal ${Nblock}/${Ne}
variable Nf equal 200
variable Dz equal 0.1

variable A_in_m equal 1e-10 # Angstrom in meter
variable atm_in_Pa equal 101325 # note: 1 Pa = 1 N/m^2
variable N_in_mN equal 1e3 # Newton in milliNewton
variable convFac equal ${A_in_m}*${atm_in_Pa}*${N_in_mN}
variable nAtoms equal atoms
variable nMolecules equal v_nAtoms/3

variable Text equal 298

group hydrogen type 1
group oxygen type 2

velocity all create ${Text} 1234

neighbor 2.0 bin
neigh_modify every 1 delay 0 check yes
#minimize 1.0e-3 1.0e-4 100 1000

timestep 2.0

#fix loadBalance all balance 20 z 5 1.05

fix constrain all shake 1.0e-4 100 0 b 1 a 1
fix integrate all nvt temp ${Text} ${Text} 200.0
fix removeMomentum all momentum 1 linear 1 1 1

compute T all temp
fix TAve all ave/time ${Ne} ${Nr} ${Nf} c_T

variable P equal press
fix PAve all ave/time ${Ne} ${Nr} ${Nf} v_P

variable xPress equal c_thermo_press[1]
variable yPress equal c_thermo_press[2]
variable zPress equal c_thermo_press[3]

compute PE all pe pair kspace
variable PE_Mol equal c_PE/v_nMolecules
fix PEAve_Mol all ave/time ${Ne} ${Nr} ${Nf} v_PE_Mol

# Evaluate and average surface tension in mN/m:
variable st equal 0.5*lz*(v_zPress-0.5*(v_xPress+v_yPress))*${convFac}
fix st all ave/time ${Ne} ${Nr} ${Nf} v_st

variable xyArea equal lx*ly

thermo_style custom step temp f_TAve press f_PAve f_PEAve_Mol v_xyArea lz f_st
thermo_modify flush yes
thermo ${Nf}

compute cO oxygen chunk/atom bin/1d z center ${Dz} units box
fix numDensO oxygen ave/chunk ${Ne} ${Nr} ${Nf} cO density/number &
    file numDensO.zProfile

compute cH hydrogen chunk/atom bin/1d z center ${Dz} units box
fix numDensH hydrogen ave/chunk ${Ne} ${Nr} ${Nf} cH density/number &
    file numDensH.zProfile

compute A all chunk/atom bin/1d z center ${Dz} units box

compute	charges all property/atom q
fix qDens all ave/chunk ${Ne} ${Nr} ${Nf} A c_charges file qDens.zProfile

dump trj all atom ${Ndump} watSPCE.lammpstrj
dump_modify trj scale no sort id

run ${Nrun}

#write_restart restart.wat
